*SPEF "IEEE 1481-1998"
*DESIGN "low_power_soc"
*DATE "Sat Aug 29 09:19:34 2026"
*VENDOR "Cadence Design Systems, Inc."
*PROGRAM "Innovus"
*VERSION "21.15-s110_1"
*DESIGN_FLOW "COUPLING C" "PIN_CAP NONE" "NAME_SCOPE LOCAL"
*DIVIDER /
*DELIMITER :
*BUS_DELIMITER []
*T_UNIT 1 NS
*C_UNIT 1 PF
*R_UNIT 1 OHM
*L_UNIT 1 HENRY

// MMMC spef file for corner 'rc'

*NAME_MAP

*1 FE_PSBN17_n_1
*2 FE_PSBN16_n_1
*3 FE_PSBN15_n_1
*4 FE_OCPN22_n_1
*5 FE_RN_1
*6 FE_OFN10_n_11
*7 FE_OFN8_wake_ff_0
*8 FE_OFN7_n_2
*9 FE_OFN6_n_6
*10 FE_OFN4_n_4
*11 FE_OFN3_n_3
*12 FE_OFN1_n_5
*13 clk
*14 rst_n
*15 cpu_enable
*16 sram_enable
*17 gpio_enable
*18 timer_enable
*19 uart_enable
*20 async_wakeup
*21 test_enable
*22 cpu_clk
*23 sram_clk
*24 gpio_clk
*25 timer_clk
*26 uart_clk
*27 wake_sync
*28 wake_ff[0]
*29 UNCONNECTED
*30 UNCONNECTED0
*31 UNCONNECTED1
*32 UNCONNECTED2
*33 UNCONNECTED3
*34 cpu_en_latched
*35 gpio_en_latched
*36 n_1
*37 n_2
*38 n_3
*39 n_4
*40 n_5
*41 n_6
*42 n_7
*43 n_8
*44 n_9
*45 n_10
*46 sram_en_latched
*47 timer_en_latched
*48 uart_en_latched
*49 SE
*50 scan_in
*51 dft_sdi_1
*52 scan_out
*53 dft_sdo_1
*54 FE_PSBC23_n_1
*55 FE_PSBC22_n_1
*56 FE_PSBC21_n_1
*57 FE_OCPC22_n_1
*58 FE_OFC9_n_1_dup
*59 FE_RC_0_0
*60 FE_OFC17_n_2
*61 FE_OFC16_n_5
*62 FE_OFC15_n_3
*63 FE_OFC14_n_6
*64 FE_OFC8_wake_ff_0
*65 FE_OFC4_n_4
*66 wake_ff_reg\[0\]
*67 g181__2398
*68 g182__5107
*69 g183__6260
*70 g184__4319
*71 g185__8428
*72 cpu_en_latched_reg
*73 gpio_en_latched_reg
*74 sram_en_latched_reg
*75 timer_en_latched_reg
*76 uart_en_latched_reg
*77 g232__6783
*78 g233__3680
*79 g234__1617
*80 g235__2802
*81 g236__1705
*82 g237__5122
*83 wake_ff_reg\[1\]
*84 g239__8246
*85 g240__7098
*86 g241__6131
*87 g242
*88 clk_pad
*89 rstn_pad
*90 cpu_en_pad
*91 sram_en_pad
*92 gpio_en_pad
*93 timer_en_pad
*94 uart_en_pad
*95 wake_pad
*96 test_pad
*97 se_pad
*98 scanin_pad
*99 dft_sdi_pad
*100 cpu_clk_pad
*101 sram_clk_pad
*102 gpio_clk_pad
*103 timer_clk_pad
*104 uart_clk_pad
*105 wake_sync_pad
*106 scanout_pad
*107 dft_sdo_pad


*PORTS

*13 I *C 272 771.29
*14 I *C 334 771.29
*15 I *C 396 771.29
*16 I *C 458 771.29
*17 I *C 520 771.29
*18 I *C 582 771.29
*19 I *C 272 80.71
*20 I *C 334 80.71
*21 I *C 396 80.71
*22 O *C 239.638 272.137
*23 O *C 239.638 334.137
*24 O *C 239.638 396.137
*25 O *C 239.638 458.137
*26 O *C 612.363 271.863
*27 O *C 612.363 333.863


*D_NET *1 0.000680337

*CONN
*I *55:A I *C 423.105 331.8 *L 0.00804 *D CLKINVX20
*I *56:A I *C 421.105 333.58 *L 0.00804 *D CLKINVX20
*I *54:Y O *C 425.5 333.04 *L 0 *D CLKINVX20

*CAP
1 *55:A 2.26693e-05
2 *56:A 2.26693e-05
3 *54:Y 2.26693e-05
4 *1:3 2.89903e-05
5 *1:4 2.89903e-05
6 *1:5 8.03083e-05
7 *1:6 7.57011e-05
8 *1:7 7.57011e-05
9 *1:8 0.00018058
10 *1:9 1.74587e-05
11 *1:10 0.000107141
12 *1:11 1.74587e-05

*RES
1 *1:11 *54:Y 8.76079178
2 *1:6 *55:A 8.76079178
3 *1:9 *1:11 0.672539
4 *1:6 *1:7 4.78812
5 *1:10 *1:9 8.76079178
6 *1:8 *1:7 8.76079178
7 *1:8 *1:10 7.10905
8 *1:3 *56:A 8.76079178
9 *1:5 *1:8 8.18517
10 *1:4 *1:3 1.40951
11 *1:4 *1:5 8.76079178
*END

*D_NET *2 0.0172469

*CONN
*I *78:B I *C 336.725 376.315 *L 0.0024 *D NAND2X6
*I *77:B I *C 336.865 420.825 *L 0.00324 *D NAND2X8
*I *55:Y O *C 423.7 332.34 *L 0 *D CLKINVX20

*CAP
1 *78:B 2.2683e-05
2 *77:B 2.2683e-05
3 *55:Y 2.2683e-05
4 *2:3 0.000219799
5 *2:4 0.000219799
6 *2:5 6.38303e-05
7 *2:6 6.26687e-05
8 *2:7 7.70366e-05
9 *2:8 7.70366e-05
10 *2:9 0.000167402
11 *2:10 0.000172048
12 *2:11 0.00176273
13 *2:12 0.00352828
14 *2:13 0.00177704
15 *2:14 2.42115e-05
16 *2:15 1.95648e-05
17 *2:16 0.000323737
18 *2:17 0.000328445
19 *2:18 0.0040056
20 *2:19 0.00400682
21 *2:22 1.78529e-05
22 *2:23 8.44346e-05
23 *2:24 1.78529e-05
24 *2:25 6.90272e-05
25 *2:26 8.44346e-05
26 *2:27 6.90272e-05

*RES
1 *2:15 *55:Y 8.76187
2 *2:15 *2:14 0.733211
3 *2:17 *2:14 1.08149
4 *2:17 *2:16 22.209
5 *2:24 *77:B 8.76187
6 *2:21 *2:24 1.02283
7 *2:18 *2:16 8.76187
8 *2:25 *2:24 8.76187
9 *2:19 *2:18 240.258591
10 *2:25 *2:27 4.24896
11 *2:7 *2:19 1.29045
12 *2:9 *2:27 8.76187
13 *2:8 *2:7 3.50475
14 *2:10 *2:9 10.8039
15 *2:8 *2:5 1.29045
16 *2:3 *2:10 1.08149
17 *2:6 *2:5 2.66522
18 *2:4 *2:3 15.2581
19 *2:13 *2:6 8.76187
20 *2:4 *2:11 1.08149
21 *2:13 *2:12 133.866
22 *2:12 *2:11 132.37
23 *2:26 *2:12 8.76187
24 *2:23 *2:26 4.95651
25 *2:22 *78:B 8.76187
26 *2:22 *2:23 8.76187
27 *2:20 *2:22 0.216297
*END

*D_NET *3 0.0210229

*CONN
*I *79:B I *C 334.465 455.025 *L 0.00324 *D NAND2X8
*I *56:Y O *C 421.7 333.04 *L 0 *D CLKINVX20

*CAP
1 *79:B 2.26613e-05
2 *56:Y 2.26613e-05
3 *3:2 0.00510346
4 *3:3 0.00507153
5 *3:4 0.00442058
6 *3:5 0.000495277
7 *3:6 0.000463427
8 *3:7 0.000206366
9 *3:8 0.000255192
10 *3:9 3.06823e-05
11 *3:10 0.000206366
12 *3:11 0.00442175
13 *3:12 2.37515e-05
14 *3:13 0.000255192
15 *3:14 2.37515e-05

*RES
1 *3:14 *56:Y 8.75921
2 *3:12 *3:14 1.55434
3 *3:13 *3:12 8.75921
4 *3:8 *3:13 17.7697
5 *3:6 *79:B 8.75921
6 *3:7 *3:8 8.75921
7 *3:5 *3:6 37.6839
8 *3:7 *3:10 13.4514
9 *3:2 *3:5 3.23723
10 *3:9 *3:10 8.75921
11 *3:3 *3:2 382.950867
12 *3:9 *3:11 1.29138
13 *3:4 *3:3 8.75921
14 *3:4 *3:11 238.462
*END

*D_NET *4 0.00018822

*CONN
*I *57:Y O *C 430.165 334.925 *L 0 *D CLKINVX6
*I *58:A I *C 431.495 335.25 *L 0.00324 *D CLKINVX8

*CAP
1 *57:Y 2.97104e-05
2 *58:A 2.26697e-05
3 *4:2 4.634e-05
4 *4:3 1.75199e-05
5 *4:4 3.58105e-05
6 *4:5 3.61697e-05

*RES
1 *4:5 *58:A 8.76079178
2 *4:4 *4:5 2.15932
3 *4:3 *4:4 0.675347
4 *4:2 *4:3 8.76079178
5 *57:Y *4:2 1.79745
*END

*D_NET *5 0.00989641

*CONN
*I *59:B I *C 336.23 333.525 *L 0.00161 *D NAND2X4
*I *58:Y O *C 432.045 335.03 *L 0 *D CLKINVX8
*I *80:B I *C 427.725 333.525 *L 0.0024 *D NAND2X6

*CAP
1 *59:B 2.26671e-05
2 *58:Y 2.26671e-05
3 *80:B 2.26671e-05
4 *5:3 7.1779e-05
5 *5:4 7.1779e-05
6 *5:5 0.00412635
7 *5:6 0.00412238
8 *5:7 0.00027616
9 *5:8 0.00027616
10 *5:9 0.000237375
11 *5:10 0.000237375
12 *5:12 1.02631e-05
13 *5:13 1.02631e-05
14 *5:14 0.000160936
15 *5:15 3.52599e-05
16 *5:16 0.000156969
17 *5:17 3.52599e-05

*RES
1 *5:3 *58:Y 8.76136
2 *5:4 *5:3 4.70867
3 *5:9 *5:4 8.76136
4 *5:10 *5:9 14.9213
5 *5:17 *5:10 8.76136
6 *5:15 *80:B 8.76136
7 *5:15 *5:17 2.01736
8 *5:16 *5:15 8.76136
9 *5:14 *5:16 10.6215
10 *5:14 *5:7 1.02441
11 *5:8 *5:7 17.7294
12 *5:5 *5:8 1.02441
13 *5:13 *59:B 8.76136
14 *5:6 *5:5 294.453552
15 *5:12 *5:13 0.107832
16 *5:12 *5:6 8.76136
17 *5:11 *5:12 0.862657
*END

*D_NET *6 0.000323722

*CONN
*I *59:Y O *C 336.695 333.505 *L 0 *D NAND2X4
*I *72:D I *C 334.3 331.835 *L 0.00021 *D DFFNSRX4

*CAP
1 *59:Y 2.26713e-05
2 *72:D 2.26713e-05
3 *6:2 7.70191e-05
4 *6:3 0.00013025
5 *6:4 7.11103e-05

*RES
1 *6:4 *59:Y 8.76079178
2 *6:3 *6:4 4.72195
3 *6:2 *6:3 5.39836
4 *72:D *6:2 8.76079178
*END

*D_NET *7 0.0106506

*CONN
*I *83:D I *C 435.165 330.275 *L 0.000307 *D DFFRHQX1
*I *64:Y O *C 331.535 329.66 *L 0 *D BUFX2

*CAP
1 *83:D 2.26474e-05
2 *64:Y 2.26474e-05
3 *7:4 1.78756e-05
4 *7:5 0.00495987
5 *7:6 0.00496388
6 *7:7 0.000141187
7 *7:8 1.78756e-05
8 *7:9 0.000137172
9 *7:9 *14:16 4.43e-06
10 *7:7 *14:17 4.43e-06
11 *7:6 *14:16 0.0001793
12 *7:5 *14:17 0.000179300003

*RES
1 *7:8 *83:D 8.76275
2 *7:3 *7:8 1.01943
3 *7:9 *7:8 8.76275
4 *7:7 *7:9 14.3859
5 *7:6 *7:7 1.02485
6 *7:5 *7:6 355.368622
7 *7:4 *7:5 8.76275
8 *7:4 *64:Y 8.76275
9 *7:2 *7:4 1.01943
*END

*D_NET *8 0.010926

*CONN
*I *60:Y O *C 396.35 249.555 *L 0 *D CLKBUFX6
*I *80:A I *C 428.07 333.52 *L 0.00241 *D NAND2X6

*CAP
1 *60:Y 2.26789e-05
2 *80:A 2.26789e-05
3 *8:2 0.00341669
4 *8:3 0.00146542
5 *8:4 0.00341669
6 *8:5 0.00146542
7 *8:6 4.29595e-05
8 *8:7 6.1259e-05
9 *8:8 0.000281896
10 *8:9 0.000263596
11 *8:4 *21:12 0.00023335
12 *8:2 *21:13 0.000233349998

*RES
1 *8:9 *80:A 8.76173
2 *8:8 *8:9 16.7093
3 *8:7 *8:8 2.15985
4 *8:6 *8:7 2.69137
5 *8:5 *8:6 8.76173
6 *8:3 *8:5 87.4738
7 *8:4 *8:3 8.76173
8 *8:2 *8:4 276.460541
9 *60:Y *8:2 8.76173
*END

*D_NET *9 0.0312457

*CONN
*I *59:A I *C 336.54 333.685 *L 0.0016 *D NAND2X4
*I *63:Y O *C 395.98 603.925 *L 0 *D BUFX12

*CAP
1 *59:A 2.27378e-05
2 *63:Y 2.27378e-05
3 *9:2 0.00297809
4 *9:3 0.00297809
5 *9:5 1.7892e-05
6 *9:6 0.000120958
7 *9:7 0.000269126
8 *9:8 0.000120958
9 *9:9 0.000269126
10 *9:10 0.0102685
11 *9:11 0.0122141
12 *9:12 0.00196346

*RES
1 *9:12 *63:Y 8.7606
2 *9:11 *9:12 147.402
3 *9:10 *9:11 782.199646
4 *9:2 *9:10 8.7606
5 *9:3 *9:2 172.968
6 *9:9 *9:3 8.7606
7 *9:7 *9:9 18.9176
8 *9:8 *9:7 8.7606
9 *9:6 *9:8 7.60286
10 *9:5 *59:A 8.7606
11 *9:5 *9:6 8.7606
12 *9:4 *9:5 1.02645
*END

*D_NET *10 0.0336629

*CONN
*I *78:A I *C 337.07 376.32 *L 0.00241 *D NAND2X6
*I *65:Y O *C 458.61 601.815 *L 0 *D CLKBUFX20

*CAP
1 *78:A 2.25946e-05
2 *65:Y 2.01683e-05
3 *10:2 1.63773e-05
4 *10:3 2.09266e-05
5 *10:4 0.00985034
6 *10:5 0.00993784
7 *10:6 0.000107817
8 *10:7 0.000110092
9 *10:8 2.98734e-05
10 *10:9 0.00010903
11 *10:10 2.98734e-05
12 *10:11 0.00454531
13 *10:12 4.8677e-05
14 *10:13 0.00454531
15 *10:14 4.74639e-05
16 *10:15 7.79438e-05
17 *10:16 3.29063e-05
18 *10:17 7.79438e-05
19 *10:18 3.41194e-05
20 *10:19 0.000489348
21 *10:20 3.41194e-05
22 *10:21 0.000489348
23 *10:5 *12:2 0.00059524
24 *10:4 *12:3 0.00059524
25 *10:5 *12:4 8.35e-06
26 *10:4 *12:5 8.35e-06
27 *10:13 *12:6 0.00085521
28 *10:11 *12:7 0.00085521
29 *10:9 *12:6 1.811e-05
30 *10:6 *12:7 1.811e-05
31 *10:10 *12:6 9.31e-06
32 *10:8 *12:7 9.31e-06
33 *10:14 *12:8 6.59e-06
34 *10:12 *12:9 6.59003001e-06

*RES
1 *10:20 *65:Y 1.2585
2 *10:20 *10:21 1.35439
3 *10:19 *10:21 30.1081
4 *10:18 *10:19 1.35439
5 *10:16 *10:18 1.2585
6 *10:17 *10:16 8.76157
7 *10:15 *10:17 4.73436
8 *10:14 *10:15 8.76157
9 *10:12 *10:14 2.44509
10 *10:12 *10:13 1.35439
11 *10:11 *10:13 319.228
12 *10:10 *10:11 1.35439
13 *10:8 *10:10 1.39034
14 *10:8 *10:9 1.35439
15 *10:6 *10:9 6.72399
16 *10:7 *10:6 8.76157
17 *10:5 *10:7 6.95172
18 *10:4 *10:5 785.496582
19 *10:3 *10:4 1.07872
20 *10:2 *10:3 0.575315
21 *78:A *10:2 8.76157
*END

*D_NET *11 0.0322902

*CONN
*I *62:Y O *C 522.58 601.815 *L 0 *D BUFX12
*I *79:A I *C 334.16 454.89 *L 0.00321 *D NAND2X8

*CAP
1 *62:Y 2.27374e-05
2 *79:A 2.27374e-05
3 *11:2 0.00665055
4 *11:3 0.0093131
5 *11:4 0.00665055
6 *11:5 0.0093131
7 *11:6 0.000158736
8 *11:7 0.000158736

*RES
1 *11:7 *62:Y 8.76172
2 *11:6 *11:7 10.0393
3 *11:5 *11:6 8.76172
4 *11:3 *11:5 565.72229
5 *11:4 *11:3 8.76172
6 *11:2 *11:4 507.99
7 *79:A *11:2 8.76172
*END

*D_NET *12 0.0353306

*CONN
*I *61:Y O *C 517.61 603.925 *L 0 *D CLKBUFX20
*I *77:A I *C 336.56 420.69 *L 0.00321 *D NAND2X8

*CAP
1 *61:Y 6.02014e-05
2 *77:A 2.27065e-05
3 *12:2 0.00762637
4 *12:3 0.00763114
5 *12:4 0.000186194
6 *12:5 0.000181419
7 *12:6 0.00466217
8 *12:7 0.00466101
9 *12:8 5.46121e-05
10 *12:9 5.46121e-05
11 *12:10 0.00339049
12 *12:11 0.00338933
13 *12:12 0.00017583
14 *12:13 7.31267e-05
15 *12:14 0.00017583
16 *12:2 *10:5 0.00059524
17 *12:3 *10:4 0.00059524
18 *12:4 *10:5 8.35e-06
19 *12:5 *10:4 8.35e-06
20 *12:6 *10:13 0.00085521
21 *12:7 *10:11 0.00085521
22 *12:6 *10:9 1.811e-05
23 *12:7 *10:6 1.811e-05
24 *12:6 *10:10 9.31e-06
25 *12:7 *10:8 9.31e-06
26 *12:8 *10:14 6.59e-06
27 *12:9 *10:12 6.59003001e-06

*RES
1 *12:13 *61:Y 3.76532
2 *12:14 *12:13 8.75722
3 *12:12 *12:14 11.5432
4 *12:11 *12:12 8.75722
5 *12:10 *12:11 213.891
6 *12:8 *12:10 1.28363
7 *12:9 *12:8 3.30892
8 *12:9 *12:6 1.28363
9 *12:7 *12:6 329.874
10 *12:2 *12:7 8.75722
11 *12:3 *12:2 623.141541
12 *12:4 *12:3 1.08396
13 *12:5 *12:4 12.5321
14 *77:A *12:5 8.75722
*END

*D_NET *13 0.113404

*CONN
*P *13 I *C 272 771.29 *L 0
*I *88:PAD B *C 272 771.29 *L 0 *D PADDI
*I *88:Y O *C 274.0875 612.3625 *L 0 *D PADDI
*I *83:CK I *C 432.1 330.125 *L 0.00021 *D DFFRHQX1
*I *76:CKN I *C 430.7 331.835 *L 0.00021 *D DFFNSRX4
*I *75:CKN I *C 332.3 453.245 *L 0.00021 *D DFFNSRX4
*I *74:CKN I *C 334.3 374.585 *L 0.00021 *D DFFNSRX4
*I *73:CKN I *C 332.9 417.335 *L 0.00021 *D DFFNSRX4
*I *72:CKN I *C 334.1 331.835 *L 0.00021 *D DFFNSRX4
*I *71:A I *C 248.3 397.005 *L 0.000211 *D AND2XL
*I *70:A I *C 248.3 273.885 *L 0.000211 *D AND2XL
*I *69:A I *C 596.7 273.885 *L 0.000211 *D AND2XL
*I *68:A I *C 249.9 455.145 *L 0.000211 *D AND2XL
*I *67:A I *C 248.3 333.355 *L 0.000211 *D AND2XL
*I *66:CK I *C 332.5 330.125 *L 0.00021 *D DFFRHQX1

*CAP
1 *88:PAD 0.00256513
2 *88:Y 5.16918e-05
3 *83:CK 2.2623e-05
4 *76:CKN 2.2623e-05
5 *75:CKN 2.2623e-05
6 *74:CKN 2.2623e-05
7 *73:CKN 2.2623e-05
8 *72:CKN 2.2623e-05
9 *71:A 2.2623e-05
10 *70:A 2.2623e-05
11 *69:A 2.2623e-05
12 *68:A 2.2623e-05
13 *67:A 2.2623e-05
14 *66:CK 2.2623e-05
15 *13:15 7.02705e-05
16 *13:16 0.00176611
17 *13:17 0.0018791
18 *13:18 0.00176333
19 *13:19 5.35876e-05
20 *13:20 4.57516e-05
21 *13:21 0.000378778
22 *13:22 0.00168586
23 *13:23 0.00168118
24 *13:24 0.00229883
25 *13:25 0.00229883
26 *13:26 0.000445131
27 *13:27 4.96696e-05
28 *13:28 0.000425288
29 *13:29 0.000108186
30 *13:30 0.000108186
31 *13:31 0.00302315
32 *13:32 0.00277151
33 *13:33 0.000263135
34 *13:34 0.00173237
35 *13:35 0.00034933
36 *13:36 0.000213213
37 *13:37 0.0038602
38 *13:38 0.00390924
39 *13:39 8.64479e-05
40 *13:40 3.75366e-05
41 *13:41 7.33037e-05
42 *13:42 7.33037e-05
43 *13:43 0.000108818
44 *13:44 8.72062e-05
45 *13:45 6.45831e-05
46 *13:46 7.74745e-05
47 *13:47 6.77428e-05
48 *13:48 0.00468904
49 *13:49 0.00463216
50 *13:50 7.53259e-05
51 *13:51 0.00268165
52 *13:52 8.9102e-05
53 *13:53 8.9102e-05
54 *13:54 0.00803801
55 *13:60 0.00270352
56 *13:61 0.00270352
57 *13:62 3.61463e-05
58 *13:63 6.9133e-05
59 *13:64 6.9133e-05
60 *13:65 0.00457175
61 *13:66 0.00457175
62 *13:67 0.000130683
63 *13:68 0.000130683
64 *13:69 0.00278049
65 *13:70 0.00176915
66 *13:71 0.00278049
67 *13:72 0.000393565
68 *13:73 0.000367656
69 *13:74 4.53725e-05
70 *13:75 4.22128e-05
71 *13:76 3.24811e-05
72 *13:77 0.000393818
73 *13:78 4.22128e-05
74 *13:79 0.000393818
75 *13:80 6.18026e-05
76 *13:81 0.000223071
77 *13:82 0.00176915
78 *13:83 5.77583e-05
79 *13:84 0.000223071
80 *13:85 2.76785e-05
81 *13:86 0.000518561
82 *13:87 3.15964e-05
83 *13:88 0.000518561
84 *13:89 5.04279e-05
85 *13:90 7.64634e-05
86 *13:91 0.0025971
87 *13:92 4.63836e-05
88 *13:93 1.69357e-05
89 *13:94 1.69357e-05
90 *13:95 2.71729e-05
91 *13:96 2.62882e-05
92 *13:97 0.00012727
93 *13:98 0.00828269
94 *13:99 0.00827688
95 *13:100 7.78536e-05
96 *13:101 4.94168e-05
97 *13:102 1.75676e-05
98 *13:103 1.79468e-05
99 *13:104 5.97805e-05
100 *13:105 5.52306e-05
101 *13:106 1.79468e-05
102 *13:107 2.2623e-05
103 *13:108 0.00261783
104 *13:109 0.00449276
105 *13:110 1.79468e-05
106 *13:111 0.00356319
107 *13:37 *47:7 0.00017248
108 *13:38 *47:6 0.00017248
109 *13:38 *47:7 2.11e-06
110 *13:39 *47:6 2.11e-06
111 *13:39 *47:7 8.4e-07
112 *13:40 *47:6 8.4001019e-07

*RES
1 *13:110 *69:A 8.75871
2 *13:59 *13:110 1.02329
3 *13:111 *13:110 8.75871
4 *13:54 *13:111 256.845
5 *13:109 *13:54 324.148
6 *13:108 *13:109 8.75871
7 *13:51 *83:CK 8.75871
8 *13:108 *13:51 198.355
9 *13:51 *13:50 6.83372
10 *13:107 *13:50 1.07901
11 *13:106 *76:CKN 8.75871
12 *13:58 *13:106 1.02329
13 *13:47 *13:107 8.75871
14 *13:48 *13:106 8.75871
15 *13:48 *13:47 4.26538
16 *13:49 *13:48 331.990204
17 *13:49 *13:41 1.02329
18 *13:53 *66:CK 8.75871
19 *13:42 *13:41 4.26031
20 *13:53 *13:52 8.05964
21 *13:45 *13:42 1.02329
22 *13:103 *72:CKN 8.75871
23 *13:57 *13:103 1.02329
24 *13:44 *13:52 8.75871
25 *13:46 *13:45 3.55617
26 *13:43 *13:103 8.75871
27 *13:44 *13:43 5.67366
28 *13:46 *13:105 2.05164
29 *13:43 *13:104 1.41842
30 *13:104 *13:105 2.12256
31 *13:23 *13:104 8.75871
32 *13:23 *13:22 126.234
33 *13:32 *70:A 8.75871
34 *13:35 *13:22 1.07901
35 *13:31 *67:A 8.75871
36 *13:32 *13:31 217.372
37 *13:21 *74:CKN 8.75871
38 *13:35 *13:21 24.3106
39 *13:31 *13:33 18.0696
40 *13:21 *13:20 3.84492
41 *13:33 *13:60 1.1094
42 *13:20 *13:19 1.07901
43 *13:60 *13:61 211.769
44 *13:19 *13:18 4.5288
45 *13:27 *13:61 1.11447
46 *13:18 *13:34 130.342
47 *13:26 *71:A 8.75871
48 *13:27 *13:26 2.78111
49 *13:29 *13:34 8.75871
50 *13:26 *13:28 29.9742
51 *13:30 *13:29 4.75169
52 *13:28 *13:25 2.22894
53 *13:36 *13:30 8.75871
54 *13:102 *75:CKN 8.75871
55 *13:25 *13:24 178.568
56 *13:17 *73:CKN 8.75871
57 *13:36 *13:17 14.1842
58 *13:101 *13:102 0.673747
59 *13:64 *68:A 8.75871
60 *13:24 *13:62 2.22387
61 *13:17 *13:16 126.163
62 *13:101 *13:16 3.23703
63 *13:63 *13:64 4.159
64 *13:40 *13:62 8.75871
65 *13:16 *13:15 4.7213
66 *13:39 *13:63 8.75871
67 *13:40 *13:39 3.26742
68 *13:37 *13:15 8.75871
69 *13:39 *13:38 3.53084
70 *13:38 *13:37 290.345
71 *13:72 *88:Y 4.23498
72 *13:65 *13:38 8.75871
73 *13:72 *13:73 25.5821
74 *13:65 *13:66 329.001
75 *13:73 *13:74 2.0719
76 *13:67 *13:66 8.75871
77 *13:74 *13:76 1.42855
78 *13:67 *13:68 9.16904
79 *13:75 *13:76 1.03342
80 *13:69 *13:68 8.75871
81 *13:75 *13:78 2.14282
82 *13:69 *13:71 211.415
83 *13:77 *13:78 1.03342
84 *13:70 *13:71 8.75871
85 *13:77 *13:79 27.8769
86 *13:70 *13:82 137.404
87 *13:79 *13:80 1.03342
88 *13:81 *13:82 8.75871
89 *13:80 *13:83 3.57137
90 *13:81 *13:84 15.6583
91 *13:84 *13:83 8.75871
92 *13:85 *13:84 8.75871
93 *88:PAD *13:91 3.79933
94 *13:85 *13:87 1.42855
95 *13:90 *13:91 0.0607892
96 *13:86 *13:87 1.03342
97 *13:90 *13:100 0.065855
98 *13:86 *13:88 38.4998
99 *13:99 *13:100 0.0810523
100 *13:88 *13:89 1.02835
101 *13:98 *13:99 29.9995
102 *13:89 *13:92 2.84696
103 *13:97 *13:98 0.597761
104 *13:93 *13:92 8.75871
105 *13:96 *13:97 0.597761
106 *13:56 *13:96 0.268486
107 *13:93 *13:94 0.673747
108 *13:95 *13:96 2.16308
109 *13:95 *13:94 2.16308
110 *13:55 *13:95 0.268486
111 *88:PAD *13 0.00506577
*END

*D_NET *14 0.0825368

*CONN
*P *14 I *C 334 771.29 *L 0
*I *89:PAD B *C 334 771.29 *L 0 *D PADDI
*I *89:Y O *C 336.0875 612.3625 *L 0 *D PADDI
*I *83:RN I *C 433.1 330.125 *L 0.000617 *D DFFRHQX1
*I *76:RN I *C 433.52 331.69 *L 0.00021 *D DFFNSRX4
*I *75:RN I *C 335.12 453.39 *L 0.00021 *D DFFNSRX4
*I *74:RN I *C 337.12 374.73 *L 0.00021 *D DFFNSRX4
*I *73:RN I *C 335.72 417.19 *L 0.00021 *D DFFNSRX4
*I *72:RN I *C 336.92 331.69 *L 0.00021 *D DFFNSRX4
*I *66:RN I *C 333.5 330.125 *L 0.000617 *D DFFRHQX1

*CAP
1 *89:PAD 0.00258303
2 *89:Y 5.17191e-05
3 *83:RN 2.27218e-05
4 *76:RN 2.27218e-05
5 *75:RN 2.27218e-05
6 *74:RN 2.27218e-05
7 *73:RN 2.27218e-05
8 *72:RN 2.27218e-05
9 *66:RN 2.27218e-05
10 *14:10 0.00195905
11 *14:11 0.00193178
12 *14:12 0.000242798
13 *14:13 0.000248641
14 *14:14 0.00151143
15 *14:15 0.00149434
16 *14:16 0.00454988
17 *14:17 0.00457974
18 *14:18 1.75282e-05
19 *14:19 3.59221e-05
20 *14:20 0.000292895
21 *14:21 0.000285213
22 *14:22 0.0013896
23 *14:23 0.00140323
24 *14:24 6.61096e-05
25 *14:25 4.78239e-05
26 *14:28 7.20605e-05
27 *14:29 7.20605e-05
28 *14:30 5.78865e-05
29 *14:31 7.17359e-05
30 *14:32 6.18898e-05
31 *14:33 0.00131646
32 *14:34 4.93387e-05
33 *14:35 7.17359e-05
34 *14:36 3.25679e-05
35 *14:37 0.000178637
36 *14:38 0.000401094
37 *14:39 0.000431714
38 *14:40 3.06203e-05
39 *14:41 1.742e-05
40 *14:42 5.03125e-05
41 *14:43 5.84274e-05
42 *14:44 0.00121085
43 *14:45 0.00109681
44 *14:46 6.17816e-05
45 *14:47 0.00709082
46 *14:48 0.00131646
47 *14:49 0.00709082
48 *14:50 2.18562e-05
49 *14:51 6.5244e-05
50 *14:52 1.81774e-05
51 *14:53 1.81774e-05
52 *14:54 2.76989e-05
53 *14:55 8.78576e-05
54 *14:56 3.17023e-05
55 *14:57 8.78576e-05
56 *14:58 3.17023e-05
57 *14:59 2.76989e-05
58 *14:60 2.57514e-05
59 *14:61 2.98629e-05
60 *14:62 4.73912e-05
61 *14:63 4.32796e-05
62 *14:64 2.71579e-05
63 *14:65 2.61842e-05
64 *14:66 2.74825e-05
65 *14:67 9.11035e-05
66 *14:68 0.00633505
67 *14:69 0.00632932
68 *14:70 0.00261625
69 *14:71 0.00026736
70 *14:72 0.00026736
71 *14:73 4.55518e-05
72 *14:74 5.61553e-05
73 *14:75 2.21808e-05
74 *14:76 3.9168e-05
75 *14:77 3.45155e-05
76 *14:69 *15:6 0.0108645
77 *14:68 *15:7 0.01086444
78 *14:16 *7:9 4.43e-06
79 *14:17 *7:7 4.43e-06
80 *14:16 *7:6 0.0001793
81 *14:17 *7:5 0.000179300003

*RES
1 *14:28 *66:RN 8.76079
2 *14:77 *76:RN 8.76079
3 *14:28 *14:29 4.72748
4 *14:76 *14:77 2.01776
5 *14:30 *14:29 8.76079
6 *14:73 *83:RN 8.76079
7 *14:75 *14:76 1.07968
8 *14:30 *14:32 5.60895
9 *14:73 *14:74 2.70142
10 *14:74 *14:75 0.672587
11 *14:31 *14:32 1.0257
12 *14:16 *14:74 8.76079
13 *14:31 *14:35 5.31429
14 *14:17 *14:16 343.918
15 *14:35 *14:36 1.0257
16 *14:17 *14:43 3.07709
17 *14:36 *14:42 1.4218
18 *14:42 *14:43 1.4218
19 *14:41 *14:42 8.76079
20 *14:21 *72:RN 8.76079
21 *14:41 *14:21 0.672587
22 *14:21 *14:20 24.7127
23 *14:23 *14:20 2.15936
24 *14:23 *14:22 104.265
25 *14:25 *74:RN 8.76079
26 *14:22 *14:38 1.07968
27 *14:25 *14:24 2.71258
28 *14:38 *14:39 28.2598
29 *14:39 *14:24 2.15936
30 *14:39 *14:40 1.34517
31 *14:11 *14:40 1.07968
32 *14:11 *14:10 146.076
33 *14:34 *14:10 3.23904
34 *14:13 *73:RN 8.76079
35 *14:34 *14:13 0.672587
36 *14:13 *14:12 16.1573
37 *14:18 *75:RN 8.76079
38 *14:15 *14:12 1.07968
39 *14:19 *14:18 0.675355
40 *14:15 *14:14 112.109
41 *14:19 *14:14 2.15936
42 *14:33 *14:14 8.76079
43 *14:33 *14:48 94.1622
44 *14:37 *89:Y 4.12254
45 *14:47 *14:48 8.76079
46 *14:37 *14:44 9.24814
47 *14:47 *14:49 555.917
48 *14:44 *14:45 78.9747
49 *14:50 *14:49 8.76079
50 *14:45 *14:46 1.03089
51 *14:50 *14:51 1.03089
52 *14:46 *14:51 3.55787
53 *14:52 *14:51 8.76079
54 *14:52 *14:53 0.679114
55 *14:54 *14:53 8.76079
56 *14:54 *14:56 1.42222
57 *14:55 *14:56 1.03022
58 *14:55 *14:57 5.68886
59 *14:57 *14:58 1.03022
60 *14:58 *14:59 1.42222
61 *89:PAD *14:70 3.82334
62 *14:60 *14:59 8.76079
63 *14:69 *14:70 0.0801725
64 *14:60 *14:61 1.35118
65 *14:68 *14:69 28.8591
66 *14:61 *14:71 1.0845
67 *14:67 *14:68 0.59663
68 *14:71 *14:72 19.5922
69 *14:66 *14:67 0.0364147
70 *14:62 *14:72 1.0845
71 *14:65 *14:66 0.59663
72 *14:27 *14:65 0.268562
73 *14:62 *14:63 2.70237
74 *14:64 *14:65 2.16491
75 *14:64 *14:63 2.16491
76 *14:26 *14:64 0.268562
77 *89:PAD *14 0.00653203
*END

*D_NET *15 0.0447646

*CONN
*P *15 I *C 396 771.29 *L 0
*I *90:PAD B *C 396 771.29 *L 0 *D PADDI
*I *90:Y O *C 398.0875 612.3625 *L 0 *D PADDI
*I *81:B I *C 397.565 603.47 *L 0.000793 *D NOR2X2

*CAP
1 *90:PAD 0.00258298
2 *90:Y 2.58423e-05
3 *81:B 2.26602e-05
4 *15:4 0.000377799
5 *15:5 0.000377799
6 *15:6 0.00631931
7 *15:7 0.00630803
8 *15:11 5.77595e-05
9 *15:12 0.000333636
10 *15:13 0.000333636
11 *15:14 1.79353e-05
12 *15:15 1.62961e-05
13 *15:16 2.71923e-05
14 *15:17 2.35281e-05
15 *15:18 2.35281e-05
16 *15:19 0.000127187
17 *15:20 9.64265e-05
18 *15:21 7.92626e-05
19 *15:22 0.00261624
20 *15:23 0.00141911
21 *15:24 6.17129e-05
22 *15:25 0.00141911
23 *15:26 4.22348e-05
24 *15:27 7.81055e-05
25 *15:28 7.81055e-05
26 *15:29 4.22348e-05
27 *15:30 3.24957e-05
28 *15:31 5.00453e-05
29 *15:32 4.54169e-05
30 *15:6 *14:69 0.0108645
31 *15:7 *14:68 0.01086444

*RES
1 *15:5 *81:B 8.76108
2 *15:5 *15:4 29.2846
3 *15:32 *90:Y 2.07194
4 *15:31 *15:4 8.76108
5 *15:31 *15:32 1.43092
6 *15:30 *15:31 1.43092
7 *15:22 *90:PAD 3.82259
8 *15:29 *15:30 1.03597
9 *15:21 *15:22 0.0799311
10 *15:28 *15:29 2.1456
11 *15:20 *15:21 0.197477
12 *15:27 *15:28 3.57653
13 *15:6 *15:20 0.115979
14 *15:26 *15:27 2.1456
15 *15:7 *15:6 28.6389
16 *15:25 *15:26 1.03597
17 *15:19 *15:7 0.597133
18 *15:23 *15:25 102.713089
19 *15:18 *15:19 0.597133
20 *15:23 *15:24 1.03127
21 *15:17 *15:18 0.162997
22 *15:11 *15:24 3.55772
23 *15:16 *15:17 2.16441
24 *15:10 *15:16 0.268004
25 *15:12 *15:11 8.76108
26 *15:15 *15:16 2.16441
27 *15:9 *15:15 1.02657
28 *15:12 *15:13 23.7693
29 *15:14 *15:15 8.76108
30 *15:14 *15:13 8.76108
31 *15:8 *15:14 1.02657
32 *90:PAD *15 0.00626911
*END

*D_NET *16 0.031531

*CONN
*P *16 I *C 458 771.29 *L 0
*I *91:PAD B *C 458 771.29 *L 0 *D PADDI
*I *91:Y O *C 460.0875 612.3625 *L 0 *D PADDI
*I *84:B I *C 458.765 603.47 *L 0.000793 *D NOR2X2

*CAP
1 *91:PAD 0.00258295
2 *91:Y 5.17827e-05
3 *84:B 2.26777e-05
4 *16:4 5.90589e-05
5 *16:5 5.90589e-05
6 *16:9 0.0014088
7 *16:10 0.000281349
8 *16:11 0.000281349
9 *16:12 0.00147368
10 *16:13 0.0014088
11 *16:14 0.00292263
12 *16:15 7.64007e-05
13 *16:16 0.00261497
14 *16:17 0.00141511
15 *16:18 0.0003244
16 *16:19 0.0003244
17 *16:20 1.79481e-05
18 *16:21 1.62503e-05
19 *16:22 2.71647e-05
20 *16:23 3.39559e-05
21 *16:24 3.39559e-05
22 *16:25 0.000127213
23 *16:26 0.00794749
24 *16:27 0.00794167
25 *16:28 7.78559e-05

*RES
1 *16:5 *84:B 8.76094
2 *91:PAD *16:16 3.82313
3 *16:5 *16:4 7.11501
4 *16:15 *16:16 0.0619263
5 *16:13 *16:4 8.76094
6 *16:15 *16:28 0.0651856
7 *16:9 *16:13 89.0696
8 *16:27 *16:28 0.0798524
9 *16:10 *16:9 8.76094
10 *16:26 *16:27 28.7827
11 *16:10 *16:11 21.6188
12 *16:25 *16:26 0.596448
13 *16:12 *16:11 8.76094
14 *16:24 *16:25 0.596448
15 *16:12 *16:14 106.800072
16 *16:14 *91:Y 4.12625
17 *16:23 *16:24 0.324298
18 *16:14 *16:17 102.527
19 *16:22 *16:23 2.16416
20 *16:8 *16:22 0.268891
21 *16:18 *16:17 8.76094
22 *16:21 *16:22 2.16416
23 *16:7 *16:21 1.02667
24 *16:18 *16:19 23.0904
25 *16:20 *16:21 8.76094
26 *16:20 *16:19 8.76094
27 *16:6 *16:20 1.02667
28 *91:PAD *16 0.00651856
*END

*D_NET *17 0.0475658

*CONN
*P *17 I *C 520 771.29 *L 0
*I *92:PAD B *C 520 771.29 *L 0 *D PADDI
*I *92:Y O *C 522.0875 612.3625 *L 0 *D PADDI
*I *82:B I *C 519.565 603.47 *L 0.000793 *D NOR2X2

*CAP
1 *92:PAD 0.000207846
2 *92:Y 5.17184e-05
3 *82:B 2.26511e-05
4 *17:4 8.80769e-05
5 *17:5 8.80769e-05
6 *17:6 0.000185584
7 *17:9 0.000230691
8 *17:10 0.00136568
9 *17:11 0.00262345
10 *17:12 0.000131532
11 *17:13 0.00109202
12 *17:14 0.000999177
13 *17:15 6.17316e-05
14 *17:16 0.00116075
15 *17:17 0.000289798
16 *17:18 0.000289798
17 *17:19 5.77458e-05
18 *17:20 1.81792e-05
19 *17:21 1.81792e-05
20 *17:22 2.77063e-05
21 *17:23 0.000115978
22 *17:24 3.16921e-05
23 *17:25 0.000115978
24 *17:26 6.91199e-05
25 *17:27 6.51341e-05
26 *17:28 1.62349e-05
27 *17:29 2.7123e-05
28 *17:30 0.000275216
29 *17:31 0.000275216
30 *17:32 0.000127255
31 *17:33 0.00637099
32 *17:34 0.00636516
33 *17:35 0.00244885
34 *17:35 *93:PAD 0.00011844
35 *17:11 *18:4 0.00011844
36 *17:34 *18:5 0.0109053
37 *17:33 *18:6 0.0109053
38 *17:31 *18:7 0.00010201
39 *17:30 *18:8 0.000101929458

*RES
1 *17:5 *82:B 8.76095
2 *17:5 *17:4 6.11533
3 *17:9 *17:4 8.76095
4 *17:12 *92:Y 4.14621
5 *17:10 *17:16 73.2810898
6 *17:9 *17:10 13.9057
7 *17:6 *17:13 7.74787
8 *17:12 *17:6 5.84473
9 *17:17 *17:16 8.76095
10 *17:13 *17:14 72.2524
11 *17:17 *17:18 22.4028
12 *17:14 *17:15 1.03655
13 *17:19 *17:18 8.76095
14 *17:15 *17:19 3.57706
15 *17:20 *17:19 8.76095
16 *17:11 *17:35 3.58153
17 *92:PAD *17:11 0.3075
18 *17:20 *17:21 0.679854
19 *17:34 *17:35 0.080509
20 *17:22 *17:21 8.76095
21 *17:33 *17:34 28.8904
22 *17:22 *17:24 1.42903
23 *17:32 *17:33 0.597108
24 *17:23 *17:24 1.03544
25 *17:31 *17:32 0.597108
26 *17:23 *17:25 7.85969
27 *17:30 *17:31 5.03852
28 *17:25 *17:26 1.03544
29 *17:29 *17:30 2.1648
30 *17:8 *17:29 0.268363
31 *17:26 *17:27 4.27592
32 *17:28 *17:29 2.1648
33 *17:28 *17:27 8.76095
34 *17:7 *17:28 1.02649
35 *92:PAD *17 0.00670908
*END

*D_NET *18 0.0483357

*CONN
*P *18 I *C 582 771.29 *L 0
*I *93:PAD B *C 582 771.29 *L 0 *D PADDI
*I *93:Y O *C 584.0875 612.3625 *L 0 *D PADDI
*I *85:B I *C 523.365 603.47 *L 0.000793 *D NOR2X2

*CAP
1 *93:PAD 0.00265488
2 *93:Y 5.16919e-05
3 *85:B 2.26515e-05
4 *18:4 0.00268808
5 *18:5 0.00633807
6 *18:6 0.00634388
7 *18:7 0.000287016
8 *18:8 0.000287016
9 *18:16 1.79083e-05
10 *18:17 3.98822e-05
11 *18:18 0.00117178
12 *18:19 0.00114981
13 *18:20 1.79083e-05
14 *18:21 1.79083e-05
15 *18:22 1.62626e-05
16 *18:23 0.000200863
17 *18:24 0.000200863
18 *18:25 0.000439672
19 *18:26 2.60396e-05
20 *18:27 0.000463485
21 *18:28 3.52357e-05
22 *18:29 3.52357e-05
23 *18:30 3.38805e-05
24 *18:31 4.01726e-05
25 *18:32 0.00163972
26 *18:33 1.79083e-05
27 *18:34 1.79083e-05
28 *18:35 1.62626e-05
29 *18:36 2.60396e-05
30 *18:37 0.000103771
31 *18:38 0.00168251
32 *93:PAD *17:35 0.00011844
33 *18:4 *17:11 0.00011844
34 *18:5 *17:34 0.0109053
35 *18:6 *17:33 0.0109053
36 *18:7 *17:31 0.00010201
37 *18:8 *17:30 0.000101929458

*RES
1 *18:4 *93:PAD 3.95479
2 *18:5 *18:4 0.0797262
3 *18:6 *18:5 28.846
4 *18:37 *18:6 0.597019
5 *18:38 *93:Y 4.23476
6 *18:31 *18:37 0.109392
7 *18:32 *18:38 121.510124
8 *18:30 *18:31 0.597019
9 *18:13 *18:33 1.02902
10 *18:33 *18:32 8.76061
11 *18:29 *18:30 0.324467
12 *18:14 *18:34 1.02717
13 *18:34 *18:33 8.76061
14 *18:29 *18:7 0.283677
15 *18:15 *18:35 1.02717
16 *18:35 *18:34 8.76061
17 *18:8 *18:7 5.46773
18 *18:36 *18:35 2.16559
19 *18:28 *18:8 0.283677
20 *18:26 *18:36 0.170577
21 *18:27 *18:28 0.324467
22 *18:27 *18:26 2.16559
23 *18:25 *18:27 6.66363
24 *18:24 *18:25 2.16559
25 *18:23 *18:24 2.57163
26 *18:12 *18:22 1.03088
27 *18:22 *18:23 2.16559
28 *18:11 *18:21 0.218783
29 *18:21 *18:22 8.76061
30 *18:10 *18:20 1.03273
31 *18:20 *18:21 8.76061
32 *18:19 *18:20 8.76061
33 *18:18 *18:19 83.579
34 *18:17 *18:18 2.26756
35 *18:16 *85:B 8.76061
36 *18:16 *18:17 8.76061
37 *18:9 *18:16 0.218783
38 *93:PAD *18 0.00741639
*END

*D_NET *19 0.0358773

*CONN
*P *19 I *C 272 80.71 *L 0
*I *94:PAD B *C 272 80.71 *L 0 *D PADDI
*I *94:Y O *C 269.9125 239.6375 *L 0 *D PADDI
*I *86:B I *C 396.965 247.79 *L 0.000793 *D NOR2X2

*CAP
1 *94:PAD 0.0025652
2 *94:Y 5.16948e-05
3 *86:B 2.26953e-05
4 *19:4 0.00323534
5 *19:5 0.00484872
6 *19:6 0.00157228
7 *19:7 0.00157228
8 *19:11 0.00166293
9 *19:12 0.0025971
10 *19:13 7.64074e-05
11 *19:14 0.00825717
12 *19:15 7.77943e-05
13 *19:16 3.39168e-05
14 *19:17 0.00012722
15 *19:18 0.00826297
16 *19:19 3.68168e-05
17 *19:20 1.7904e-05
18 *19:21 1.62649e-05
19 *19:22 2.71082e-05
20 *19:23 3.39168e-05
21 *19:24 3.68168e-05
22 *19:25 6.00164e-05
23 *19:26 6.46815e-05
24 *19:27 6.63206e-05
25 *19:28 6.16555e-05
26 *19:29 0.000223927
27 *19:30 0.000228592
28 *19:31 2.21909e-05
29 *19:32 1.73997e-05

*RES
1 *19:32 *86:B 8.75969
2 *19:31 *19:32 0.692609
3 *19:30 *19:31 1.11547
4 *19:29 *19:30 17.359
5 *94:PAD *19:12 3.79842
6 *19:6 *19:29 8.75969
7 *19:12 *19:13 0.0619703
8 *19:7 *19:6 102.699
9 *19:13 *19:15 0.0656156
10 *19:28 *19:7 8.75969
11 *19:14 *19:15 0.0801969
12 *19:27 *19:28 4.15201
13 *19:14 *19:18 29.928
14 *19:26 *19:27 1.11182
15 *19:17 *19:18 0.597831
16 *19:25 *19:26 4.15201
17 *19:16 *19:17 0.597831
18 *94:Y *19:11 4.23585
19 *19:4 *19:25 8.75969
20 *19:16 *19:23 0.331723
21 *19:11 *19:5 120.594
22 *19:5 *19:4 238.8992
23 *19:22 *19:23 2.16532
24 *19:10 *19:22 0.273398
25 *19:24 *19:5 8.75969
26 *19:21 *19:22 2.16532
27 *19:9 *19:21 1.04985
28 *19:19 *19:24 2.08147
29 *19:20 *19:21 8.75969
30 *19:20 *19:19 8.75969
31 *19:8 *19:20 1.04985
32 *94:PAD *19 0.00729063
*END

*D_NET *20 0.0563028

*CONN
*P *20 I *C 334 80.71 *L 0
*I *95:PAD B *C 334 80.71 *L 0 *D PADDI
*I *95:Y O *C 331.9125 239.6375 *L 0 *D PADDI
*I *66:D I *C 335.565 330.275 *L 0.000307 *D DFFRHQX1

*CAP
1 *95:PAD 0.00258304
2 *95:Y 2.58294e-05
3 *66:D 2.27138e-05
4 *20:6 4.46236e-05
5 *20:7 3.47742e-05
6 *20:8 4.46236e-05
7 *20:9 2.19098e-05
8 *20:10 0.00136313
9 *20:11 0.00136293
10 *20:12 0.000273973
11 *20:13 0.000273973
12 *20:14 5.6885e-05
13 *20:15 1.78896e-05
14 *20:16 1.62816e-05
15 *20:17 3.84929e-05
16 *20:18 0.00148926
17 *20:19 5.6885e-05
18 *20:20 5.48749e-05
19 *20:21 0.000279601
20 *20:22 0.00388064
21 *20:23 0.000136986
22 *20:24 0.00136293
23 *20:25 0.00388064
24 *20:26 5.48749e-05
25 *20:27 0.000279601
26 *20:28 3.72868e-05
27 *20:29 4.01009e-05
28 *20:30 3.84929e-05
29 *20:31 3.72868e-05
30 *20:32 0.00658067
31 *20:33 0.00261631
32 *20:34 0.00010372
33 *20:35 0.0065865
34 *20:35 *21:14 0.0112996
35 *20:32 *21:15 0.0112996
36 *20:31 *21:16 2.92e-06
37 *20:28 *21:17 2.90021318e-06

*RES
1 *95:PAD *20:33 3.82429
2 *20:32 *20:33 0.0812718
3 *20:32 *20:35 30.0074
4 *20:34 *20:35 0.595993
5 *20:29 *20:34 0.108362
6 *20:13 *66:D 8.7593
7 *20:28 *20:29 0.595993
8 *20:12 *20:13 18.8325
9 *20:28 *20:31 0.794658
10 *95:Y *20:7 2.11307
11 *20:11 *20:12 8.7593
12 *20:30 *20:31 2.16273
13 *20:6 *20:7 8.7593
14 *20:11 *20:24 79.6916
15 *20:26 *20:30 0.347663
16 *20:6 *20:8 2.76776
17 *20:25 *20:24 8.7593
18 *20:26 *20:27 0.550842
19 *20:9 *20:8 8.7593
20 *20:22 *20:25 295.901733
21 *20:21 *20:27 3.48566
22 *20:9 *20:10 1.05653
23 *20:23 *20:22 8.7593
24 *20:20 *20:21 0.550842
25 *20:10 *20:18 100.335
26 *20:18 *20:23 9.52235
27 *20:17 *20:20 0.347663
28 *20:19 *20:18 8.7593
29 *20:16 *20:17 2.16273
30 *20:5 *20:16 0.22124
31 *20:14 *20:19 3.47211
32 *20:15 *20:16 8.7593
33 *20:15 *20:14 8.7593
34 *20:4 *20:15 1.05202
35 *95:PAD *20 0.0045151
*END

*D_NET *21 0.0920348

*CONN
*P *21 I *C 396 80.71 *L 0
*I *96:PAD B *C 396 80.71 *L 0 *D PADDI
*I *96:Y O *C 393.9125 239.6375 *L 0 *D PADDI
*I *86:A I *C 397.215 248.07 *L 0.000793 *D NOR2X2
*I *85:A I *C 523.615 603.75 *L 0.000793 *D NOR2X2
*I *84:A I *C 459.015 603.75 *L 0.000793 *D NOR2X2
*I *82:A I *C 519.815 603.75 *L 0.000793 *D NOR2X2
*I *81:A I *C 397.815 603.75 *L 0.000793 *D NOR2X2

*CAP
1 *96:PAD 0.00258291
2 *96:Y 2.5908e-05
3 *86:A 9.86972e-06
4 *85:A 2.27004e-05
5 *84:A 2.27004e-05
6 *82:A 2.27004e-05
7 *81:A 2.27004e-05
8 *21:8 8.8334e-05
9 *21:9 8.36459e-05
10 *21:10 1.30774e-05
11 *21:11 0.0061022
12 *21:12 0.0161703
13 *21:13 0.0101241
14 *21:14 0.00655942
15 *21:15 0.00657077
16 *21:16 2.17134e-05
17 *21:17 2.17134e-05
18 *21:24 0.000127319
19 *21:25 0.000131021
20 *21:26 1.80122e-05
21 *21:27 1.6285e-05
22 *21:28 2.71417e-05
23 *21:29 0.00141088
24 *21:30 0.000131021
25 *21:31 7.92045e-05
26 *21:32 0.00261622
27 *21:33 9.64765e-05
28 *21:34 9.40091e-05
29 *21:35 3.47908e-05
30 *21:36 0.000363946
31 *21:37 0.00141088
32 *21:38 0.000142371
33 *21:39 0.000276599
34 *21:40 0.000142371
35 *21:41 2.22069e-05
36 *21:42 4.93486e-05
37 *21:43 0.00300311
38 *21:44 1.80122e-05
39 *21:45 0.00643136
40 *21:46 1.80122e-05
41 *21:47 0.00362441
42 *21:48 1.80122e-05
43 *21:49 0.000195914
44 *21:14 *20:35 0.0112996
45 *21:15 *20:32 0.0112996
46 *21:16 *20:31 2.92e-06
47 *21:17 *20:28 2.90021318e-06
48 *21:12 *8:4 0.00023335
49 *21:13 *8:2 0.000233349998

*RES
1 *21:48 *85:A 8.76079
2 *21:23 *21:48 1.03138
3 *21:46 *82:A 8.76079
4 *21:22 *21:46 1.03138
5 *21:49 *21:48 8.76079
6 *21:44 *84:A 8.76079
7 *21:21 *21:44 1.02635
8 *21:47 *21:46 8.76079
9 *21:47 *21:49 13.5926
10 *21:45 *21:44 8.76079
11 *21:45 *21:47 216.772
12 *21:43 *21:45 218.342
13 *21:10 *81:A 8.76079
14 *21:11 *21:43 8.76079
15 *21:11 *21:10 0.306438
16 *21:12 *21:11 462.61
17 *21:13 *21:12 782.548
18 *21:42 *21:13 3.34376
19 *21:41 *21:42 0.694333
20 *21:32 *96:PAD 3.82334
21 *21:8 *21:41 1.11459
22 *21:31 *21:32 0.0801725
23 *21:9 *21:8 6.61131
24 *21:31 *21:33 0.197142
25 *21:40 *21:9 8.76079
26 *21:40 *86:A 0.627245
27 *21:15 *21:33 0.116006
28 *96:Y *21:35 2.11772
29 *21:38 *21:40 8.15419
30 *21:15 *21:14 29.7864
31 *21:34 *21:35 8.76079
32 *21:39 *21:38 8.76079
33 *21:24 *21:14 0.59663
34 *21:34 *21:36 6.94333
35 *21:36 *21:39 21.5243
36 *21:17 *21:24 0.59663
37 *21:37 *21:36 8.76079
38 *21:17 *21:16 0.165517
39 *21:29 *21:37 104.892
40 *21:28 *21:16 2.16491
41 *21:20 *21:28 0.273625
42 *21:30 *21:29 8.76079
43 *21:27 *21:28 2.16491
44 *21:19 *21:27 1.05017
45 *21:25 *21:30 9.02633
46 *21:26 *21:27 8.76079
47 *21:26 *21:25 8.76079
48 *21:18 *21:26 1.05017
49 *96:PAD *21 0.00653203
*END

*D_NET *22 0.0359241

*CONN
*P *22 O *C 239.6375 272.1375 *L 0
*I *100:A I *C 239.6375 272.1375 *L 0 *D PADDO
*I *100:PAD O *C 80.0075 272 *L 0 *D PADDO
*I *70:Y O *C 248.53 274.025 *L 0 *D AND2XL

*CAP
1 *100:A 0.000283212
2 *100:PAD 0.00191523
3 *22:8 4.49136e-05
4 *22:10 0.00191523
5 *22:11 6.07381e-05
6 *22:12 0.00762542
7 *22:13 0.000354189
8 *22:14 0.00762542
9 *22:15 0.000351513
10 *22:16 0.000194781
11 *22:17 0.000194781
12 *22:21 0.00142525
13 *22:22 0.00142525
14 *22:23 0.000338365
15 *22:24 8.13332e-05
16 *22:25 8.13332e-05
17 *22:26 4.57281e-05
18 *22:27 6.84176e-05
19 *22:28 4.57281e-05
20 *22:14 *23:4 0.00576576
21 *22:12 *23:5 0.00576576
22 *22:23 *23:4 0.00014004
23 *22:13 *23:5 0.00014004
24 *22:11 *23:4 1.786e-05
25 *22:8 *23:5 1.78602822e-05

*RES
1 *22:28 *70:Y 8.76048
2 *22:26 *22:28 3.47157
3 *22:27 *22:26 8.76048
4 *22:25 *22:27 5.11596
5 *22:24 *22:25 1.05922
6 *100:A *22:15 21.1951
7 *22:15 *22:24 5.11596
8 *22:16 *22:15 8.76048
9 *22:16 *22:17 14.5808
10 *22:18 *22:17 8.76048
11 *22:5 *22:18 1.05473
12 *22:19 *22:18 8.76048
13 *22:6 *22:19 1.05473
14 *22:20 *22:19 2.16503
15 *22:7 *22:20 0.274213
16 *22:21 *22:20 2.16503
17 *22:21 *22:22 22.7418
18 *22:23 *22:22 0.596817
19 *22:13 *22:23 1.98491
20 *22:13 *22:14 0.106638
21 *22:12 *22:14 58.7281952
22 *22:11 *22:12 0.106638
23 *22:8 *22:11 0.448061
24 *100:PAD *22:10 3.75744
25 *22:9 *22:8 0.596817
26 *22:9 *22:10 0.0797548
27 *22:4 *22:9 0.0250914
28 *100:A *22 0.47584
*END

*D_NET *23 0.0362464

*CONN
*P *23 O *C 239.6375 334.1375 *L 0
*I *101:A I *C 239.6375 334.1375 *L 0 *D PADDO
*I *101:PAD O *C 80.0075 334 *L 0 *D PADDO
*I *67:Y O *C 248.53 333.215 *L 0 *D AND2XL

*CAP
1 *101:A 0.000244137
2 *101:PAD 0.00194411
3 *67:Y 2.26418e-05
4 *23:4 0.00800066
5 *23:5 0.00806428
6 *23:10 4.07306e-05
7 *23:11 3.49471e-05
8 *23:12 0.00198152
9 *23:13 5.20514e-05
10 *23:14 0.000257058
11 *23:15 0.00138632
12 *23:16 0.000277977
13 *23:17 1.78427e-05
14 *23:18 1.6243e-05
15 *23:19 2.71947e-05
16 *23:20 0.00138632
17 *23:21 0.000195162
18 *23:22 0.000277977
19 *23:23 1.78427e-05
20 *23:24 0.000154062
21 *23:4 *22:14 0.00576576
22 *23:5 *22:12 0.00576576
23 *23:4 *22:23 0.00014004
24 *23:5 *22:13 0.00014004
25 *23:4 *22:11 1.786e-05
26 *23:5 *22:8 1.78602822e-05

*RES
1 *23:12 *101:PAD 3.81966
2 *23:11 *23:12 0.0799636
3 *23:10 *23:11 0.0362626
4 *23:5 *23:10 0.596938
5 *101:A *23:14 18.1982
6 *23:23 *67:Y 8.76067
7 *23:9 *23:23 1.05161
8 *23:5 *23:4 60.9360199
9 *23:13 *23:14 1.0544
10 *23:24 *23:23 8.76067
11 *23:15 *23:4 0.596938
12 *23:13 *23:21 2.91216
13 *23:21 *23:24 10.1916
14 *23:15 *23:20 21.858
15 *23:22 *23:21 8.76067
16 *23:8 *23:19 0.273364
17 *23:19 *23:20 2.1646
18 *23:16 *23:22 20.136
19 *23:7 *23:18 1.04976
20 *23:18 *23:19 2.1646
21 *23:17 *23:16 8.76067
22 *23:17 *23:18 8.76067
23 *23:6 *23:17 1.04976
24 *101:A *23 0.476063
*END

*D_NET *24 0.0335418

*CONN
*P *24 O *C 239.6375 396.1375 *L 0
*I *102:A I *C 239.6375 396.1375 *L 0 *D PADDO
*I *102:PAD O *C 80.0075 396 *L 0 *D PADDO
*I *71:Y O *C 248.53 397.145 *L 0 *D AND2XL

*CAP
1 *102:A 1.95119e-05
2 *102:PAD 0.00191528
3 *71:Y 2.26243e-05
4 *24:8 3.98618e-05
5 *24:9 0.00195275
6 *24:10 0.00784487
7 *24:11 4.56076e-05
8 *24:12 8.90606e-05
9 *24:13 2.75322e-05
10 *24:14 4.5847e-05
11 *24:15 4.5847e-05
12 *24:16 2.75322e-05
13 *24:17 1.78361e-05
14 *24:18 1.62799e-05
15 *24:19 2.7173e-05
16 *24:20 3.38765e-05
17 *24:21 4.96776e-05
18 *24:22 4.96776e-05
19 *24:23 3.38765e-05
20 *24:24 0.00778131
21 *24:25 0.000444704
22 *24:26 0.000444704
23 *24:27 0.00113157
24 *24:28 0.00113157
25 *24:29 7.14639e-05
26 *24:30 0.00035696
27 *24:31 1.78361e-05
28 *24:32 0.00035301
29 *24:24 *25:4 0.00475199
30 *24:10 *25:5 0.00475198992

*RES
1 *102:PAD *24:9 3.75728
2 *24:8 *24:9 0.0801337
3 *24:31 *71:Y 8.76068
4 *24:7 *24:31 1.05524
5 *24:8 *24:11 0.0540227
6 *24:32 *24:31 8.76068
7 *24:10 *24:11 0.596951
8 *24:30 *24:32 25.5806
9 *24:10 *24:24 59.0071831
10 *24:29 *24:30 1.05884
11 *24:23 *24:24 0.596951
12 *102:A *24:12 1.46131
13 *24:12 *24:29 4.38484
14 *24:22 *24:23 0.331339
15 *24:13 *24:12 8.76068
16 *24:22 *24:28 0.578943
17 *24:13 *24:14 1.38838
18 *24:27 *24:28 17.5952
19 *24:14 *24:25 2.22934
20 *24:21 *24:27 0.579844
21 *24:25 *24:26 31.2449
22 *24:20 *24:21 0.33224
23 *24:15 *24:26 2.22934
24 *24:6 *24:19 0.0576242
25 *24:19 *24:20 2.16451
26 *24:15 *24:16 1.38838
27 *24:5 *24:18 1.05524
28 *24:18 *24:19 2.16451
29 *24:17 *24:16 8.76068
30 *24:17 *24:18 8.76068
31 *24:4 *24:17 0.223294
32 *102:A *24 0.4763
*END

*D_NET *25 0.0347429

*CONN
*P *25 O *C 239.6375 458.1375 *L 0
*I *103:A I *C 239.6375 458.1375 *L 0 *D PADDO
*I *103:PAD O *C 80.0075 458 *L 0 *D PADDO
*I *68:Y O *C 250.13 455.285 *L 0 *D AND2XL

*CAP
1 *103:A 0.000283125
2 *103:PAD 0.00194412
3 *68:Y 2.27258e-05
4 *25:4 0.00775694
5 *25:5 0.00775694
6 *25:9 3.98884e-05
7 *25:10 0.00198152
8 *25:11 0.000122743
9 *25:12 4.56882e-05
10 *25:13 5.37369e-05
11 *25:14 0.000430487
12 *25:15 0.00109498
13 *25:16 0.000435932
14 *25:17 0.000528492
15 *25:18 1.78729e-05
16 *25:19 1.62158e-05
17 *25:20 2.71052e-05
18 *25:21 0.00109498
19 *25:22 0.000401607
20 *25:23 0.000528492
21 *25:24 0.000120375
22 *25:25 0.000120375
23 *25:26 0.000149138
24 *25:27 0.000149138
25 *25:28 0.000116351
26 *25:4 *24:24 0.00475199
27 *25:5 *24:10 0.00475198992

*RES
1 *25:10 *103:PAD 3.82016
2 *25:9 *25:10 0.0797548
3 *25:9 *25:12 0.0537673
4 *25:11 *25:12 0.596817
5 *25:11 *25:13 0.220446
6 *25:26 *68:Y 8.76048
7 *25:5 *25:13 0.106638
8 *25:26 *25:27 9.3788
9 *25:5 *25:4 58.7281952
10 *25:28 *25:27 8.76048
11 *25:4 *25:14 0.106638
12 *25:24 *25:28 7.73353
13 *25:14 *25:16 1.98491
14 *25:24 *25:25 1.05922
15 *25:15 *25:16 0.596817
16 *103:A *25:22 21.1951
17 *25:22 *25:25 8.04
18 *25:15 *25:21 17.2226
19 *25:23 *25:22 8.76048
20 *25:8 *25:20 0.273317
21 *25:20 *25:21 2.16503
22 *25:17 *25:23 38.8827
23 *25:7 *25:19 1.05025
24 *25:19 *25:20 2.16503
25 *25:18 *25:17 8.76048
26 *25:18 *25:19 8.76048
27 *25:6 *25:18 1.05025
28 *103:A *25 0.47584
*END

*D_NET *26 0.0300338

*CONN
*P *26 O *C 612.3625 271.8625 *L 0
*I *104:A I *C 612.3625 271.8625 *L 0 *D PADDO
*I *104:PAD O *C 771.9925 272 *L 0 *D PADDO
*I *69:Y O *C 596.93 274.025 *L 0 *D AND2XL

*CAP
1 *104:A 0.000283177
2 *104:PAD 0.00191527
3 *69:Y 0.000356426
4 *26:7 7.06735e-05
5 *26:8 0.000116394
6 *26:9 0.000369305
7 *26:10 7.06735e-05
8 *26:11 0.000401664
9 *26:12 0.000212986
10 *26:13 0.000212986
11 *26:14 1.78696e-05
12 *26:15 1.62597e-05
13 *26:16 2.72069e-05
14 *26:17 0.00144873
15 *26:18 0.00144873
16 *26:19 0.0104867
17 *26:20 3.49343e-05
18 *26:21 0.00195278
19 *26:22 0.01055031
20 *26:23 4.07298e-05

*RES
1 *104:PAD *26:21 3.75725
2 *26:20 *26:21 0.0800602
3 *26:20 *26:23 0.0363064
4 *69:Y *26:9 21.6721
5 *26:22 *26:23 0.596728
6 *26:10 *26:9 8.76101
7 *26:19 *26:22 61.0096169
8 *26:7 *26:10 4.8604
9 *26:18 *26:19 0.596728
10 *26:8 *26:7 8.76101
11 *26:17 *26:18 22.4783
12 *26:8 *26:11 8.03954
13 *26:11 *104:A 21.1955
14 *26:16 *26:17 2.16535
15 *26:6 *26:16 0.269971
16 *26:12 *26:11 8.76101
17 *26:15 *26:16 2.16535
18 *26:5 *26:15 1.03147
19 *26:12 *26:13 15.2757
20 *26:14 *26:15 8.76101
21 *26:14 *26:13 8.76101
22 *26:4 *26:14 1.03147
23 *104:A *26 0.476638
*END

*D_NET *27 0.0469629

*CONN
*P *27 O *C 612.3625 333.8625 *L 0
*I *105:A I *C 612.3625 333.8625 *L 0 *D PADDO
*I *105:PAD O *C 771.9925 334 *L 0 *D PADDO
*I *87:A I *C 430.495 333.55 *L 0.00324 *D CLKINVX8
*I *83:Q O *C 431.94 329.82 *L 0 *D DFFRHQX1

*CAP
1 *105:A 3.91191e-05
2 *105:PAD 0.00193138
3 *87:A 2.26309e-05
4 *83:Q 2.00445e-05
5 *27:5 0.000131744
6 *27:6 0.000118489
7 *27:7 0.00860555
8 *27:8 0.00459293
9 *27:13 2.26309e-05
10 *27:14 3.29764e-05
11 *27:15 1.74581e-05
12 *27:16 6.32048e-05
13 *27:17 3.41079e-05
14 *27:18 6.32048e-05
15 *27:19 3.41079e-05
16 *27:20 0.00427659
17 *27:21 0.000352233
18 *27:22 0.000352233
19 *27:23 1.7943e-05
20 *27:24 1.63266e-05
21 *27:25 2.7157e-05
22 *27:26 0.00132391
23 *27:27 0.00132391
24 *27:28 0.01053
25 *27:29 0.000252657
26 *27:30 4.75248e-05
27 *27:31 2.99051e-05
28 *27:32 7.77532e-05
29 *27:33 0.01059367
30 *27:34 3.57244e-05
31 *27:35 0.00197584

*RES
1 *27:19 *83:Q 1.19839
2 *27:18 *27:19 1.28903
3 *105:PAD *27:35 3.79658
4 *27:16 *27:18 2.99598
5 *27:32 *27:35 0.0654583
6 *27:16 *27:17 1.28903
7 *27:31 *27:32 0.0805641
8 *27:12 *27:31 0.0553878
9 *27:14 *27:17 1.19839
10 *27:31 *27:34 0.020141
11 *27:13 *87:A 8.76135
12 *27:6 *27:14 8.76135
13 *27:33 *27:34 0.59416
14 *27:13 *27:5 1.07755
15 *27:6 *27:5 12.422
16 *27:28 *27:33 60.8259
17 *27:5 *27:15 0.674725
18 *27:30 *105:A 2.84492
19 *27:27 *27:28 0.59416
20 *27:8 *27:15 8.76135
21 *27:29 *27:30 0.67976
22 *27:26 *27:27 20.4784
23 *27:7 *27:20 289.633
24 *27:8 *27:7 329.990662
25 *27:20 *27:29 17.7845
26 *27:25 *27:26 2.16516
27 *27:11 *27:25 0.266869
28 *27:21 *27:20 8.76135
29 *27:24 *27:25 2.16516
30 *27:10 *27:24 1.02719
31 *27:21 *27:22 25.1259
32 *27:23 *27:24 8.76135
33 *27:23 *27:22 8.76135
34 *27:9 *27:23 1.02719
35 *105:A *27 0.47835
*END

*D_NET *28 3.956e-05

*CONN
*I *64:A I *C 331.9 330.125 *L 0.00021 *D BUFX2
*I *66:Q O *C 332.34 329.82 *L 0 *D DFFRHQX1

*CAP
1 *64:A 1.978e-05
2 *66:Q 1.978e-05

*RES
1 *64:A *66:Q 1.20271
*END

*D_NET *34 0.0147942

*CONN
*I *72:Q O *C 340.045 331.545 *L 0 *D DFFNSRX4
*I *70:B I *C 247.9 273.695 *L 0.00021 *D AND2XL

*CAP
1 *72:Q 2.27021e-05
2 *70:B 2.27021e-05
3 *34:2 0.000146519
4 *34:3 0.000146519
5 *34:4 2.2145e-05
6 *34:5 2.68107e-05
7 *34:6 3.14068e-05
8 *34:7 0.00456374
9 *34:8 2.67411e-05
10 *34:9 0.000183357
11 *34:10 0.000178692
12 *34:11 0.00456374
13 *34:12 0.00242724
14 *34:13 0.00243191

*RES
1 *34:10 *72:Q 8.76202
2 *34:9 *34:10 10.7632
3 *34:9 *34:13 1.07886
4 *34:12 *34:13 184.29
5 *34:11 *34:12 8.76202
6 *34:7 *34:11 277.27063
7 *34:8 *34:7 8.76202
8 *34:4 *70:B 8.76202
9 *34:6 *34:8 1.39617
10 *34:4 *34:5 1.55271
11 *34:3 *34:6 1.1127
12 *34:2 *34:5 1.1127
13 *34:2 *34:3 9.0624
*END

*D_NET *35 0.0112284

*CONN
*I *73:Q O *C 338.845 417.045 *L 0 *D DFFNSRX4
*I *71:B I *C 247.9 396.815 *L 0.00021 *D AND2XL

*CAP
1 *73:Q 2.26627e-05
2 *71:B 2.26627e-05
3 *35:2 0.000407414
4 *35:3 0.000407414
5 *35:4 2.20833e-05
6 *35:5 2.67832e-05
7 *35:6 0.000418294
8 *35:7 0.0042181
9 *35:8 0.000413594
10 *35:9 0.00421932
11 *35:10 0.000121812
12 *35:11 0.000200423
13 *35:12 0.000121812
14 *35:13 0.000199264
15 *35:14 0.000203321
16 *35:15 0.000203321

*RES
1 *35:15 *73:Q 8.76252
2 *35:14 *35:15 13.5072
3 *35:13 *35:14 8.76252
4 *35:11 *35:13 10.787
5 *35:11 *35:12 1.28975
6 *35:10 *35:12 5.9915
7 *35:9 *35:10 1.28975
8 *35:7 *35:9 256.137451
9 *35:8 *35:7 8.76252
10 *35:4 *71:B 8.76252
11 *35:6 *35:8 30.6766
12 *35:4 *35:5 1.55161
13 *35:3 *35:6 1.11388
14 *35:2 *35:5 1.11388
15 *35:2 *35:3 30.1568
*END

*D_NET *36 0.0010868

*CONN
*I *54:A I *C 424.905 333.58 *L 0.00804 *D CLKINVX20
*I *87:Y O *C 431.045 333.77 *L 0 *D CLKINVX8
*I *57:A I *C 429.3 335.065 *L 0.00241 *D CLKINVX6

*CAP
1 *54:A 2.26716e-05
2 *87:Y 2.26716e-05
3 *57:A 0.00036923
4 *36:3 7.30403e-05
5 *36:4 3.06776e-05
6 *36:5 7.30403e-05
7 *36:6 0.00036061
8 *36:7 5.84931e-05
9 *36:8 5.38112e-05
10 *36:9 2.25589e-05

*RES
1 *36:9 *87:Y 8.76069
2 *36:7 *36:9 1.07961
3 *36:7 *36:8 7.20047
4 *57:A *36:8 8.76069
5 *36:6 *57:A 20.9701004
6 *36:4 *36:6 1.29015
7 *36:5 *36:4 8.76069
8 *36:3 *36:5 4.70816
9 *54:A *36:3 8.76069
*END

*D_NET *37 0.000188321

*CONN
*I *60:A I *C 396.9 249.565 *L 0.000787 *D CLKBUFX6
*I *86:Y O *C 397.355 247.95 *L 0 *D NOR2X2

*CAP
1 *60:A 2.26704e-05
2 *86:Y 2.26704e-05
3 *37:2 7.149e-05
4 *37:3 7.149e-05

*RES
1 *37:3 *60:A 8.76079178
2 *37:2 *37:3 4.88036
3 *86:Y *37:2 8.76079178
*END

*D_NET *38 0.00018582

*CONN
*I *62:A I *C 523.1 602.015 *L 0.00119 *D BUFX12
*I *85:Y O *C 523.755 603.63 *L 0 *D NOR2X2

*CAP
1 *62:A 2.26701e-05
2 *85:Y 2.26701e-05
3 *38:2 6.85198e-05
4 *38:3 7.196e-05

*RES
1 *38:3 *85:Y 8.76079178
2 *38:2 *38:3 4.75229
3 *62:A *38:2 8.76079178
*END

*D_NET *39 0.00024386

*CONN
*I *65:A I *C 459.1 602.015 *L 0.00199 *D CLKBUFX20
*I *84:Y O *C 459.155 603.63 *L 0 *D NOR2X2

*CAP
1 *65:A 2.26692e-05
2 *84:Y 2.26692e-05
3 *39:2 9.926e-05
4 *39:3 9.926e-05

*RES
1 *39:3 *84:Y 8.76079178
2 *39:2 *39:3 6.76149
3 *65:A *39:2 8.76079178
*END

*D_NET *40 0.00018572

*CONN
*I *61:A I *C 518.1 603.725 *L 0.00199 *D CLKBUFX20
*I *82:Y O *C 519.955 603.63 *L 0 *D NOR2X2

*CAP
1 *61:A 1.98e-05
2 *82:Y 2.26696e-05
3 *40:2 3.64296e-05
4 *40:3 2.61799e-05
5 *40:4 4.447e-05
6 *40:5 3.61704e-05

*RES
1 *40:5 *82:Y 8.76079178
2 *40:4 *40:5 2.17964
3 *40:3 *40:4 1.36339
4 *40:2 *40:3 8.76079178
5 *61:A *40:2 1.25444
*END

*D_NET *41 0.000195801

*CONN
*I *63:A I *C 396.5 603.725 *L 0.00119 *D BUFX12
*I *81:Y O *C 397.955 603.63 *L 0 *D NOR2X2

*CAP
1 *63:A 2.26701e-05
2 *81:Y 2.26701e-05
3 *41:2 2.37895e-05
4 *41:3 5.57e-05
5 *41:4 1.95305e-05
6 *41:5 5.14402e-05

*RES
1 *41:4 *81:Y 8.76079178
2 *41:4 *41:5 0.741384
3 *41:3 *41:5 3.27166
4 *41:2 *41:3 2.41104
5 *63:A *41:2 8.76079178
*END

*D_NET *42 0.000561935

*CONN
*I *80:Y O *C 428.21 333.355 *L 0 *D NAND2X6
*I *76:D I *C 430.9 331.835 *L 0.00021 *D DFFNSRX4

*CAP
1 *80:Y 2.26704e-05
2 *76:D 2.26704e-05
3 *42:2 1.74587e-05
4 *42:3 0.00018674
5 *42:4 1.74587e-05
6 *42:5 5.41e-05
7 *42:6 5.41e-05
8 *42:7 0.00018674

*RES
1 *42:5 *76:D 8.76081
2 *42:5 *42:6 3.37686
3 *42:7 *42:6 8.76081
4 *42:3 *42:7 12.0852966
5 *42:4 *80:Y 8.76081
6 *42:2 *42:3 8.76081
7 *42:2 *42:4 0.672532
*END

*D_NET *43 0.000226881

*CONN
*I *79:Y O *C 334.605 455.185 *L 0 *D NAND2X8
*I *75:D I *C 332.5 453.245 *L 0.00021 *D DFFNSRX4

*CAP
1 *79:Y 2.26703e-05
2 *75:D 2.26703e-05
3 *43:2 3.57495e-05
4 *43:3 1.74608e-05
5 *43:4 5.50203e-05
6 *43:5 7.331e-05

*RES
1 *43:4 *75:D 8.76079178
2 *43:4 *43:5 4.36957
3 *43:3 *79:Y 8.76079178
4 *43:2 *43:5 2.15932
5 *43:2 *43:3 0.672539
*END

*D_NET *44 0.0002953

*CONN
*I *74:D I *C 334.5 374.585 *L 0.00021 *D DFFNSRX4
*I *78:Y O *C 337.21 376.485 *L 0 *D NAND2X6

*CAP
1 *74:D 2.26701e-05
2 *78:Y 2.26701e-05
3 *44:2 3.61692e-05
4 *44:3 4.44704e-05
5 *44:4 7.17894922e-05
6 *44:5 7.15704e-05
7 *44:6 2.59597e-05

*RES
1 *44:6 *78:Y 8.76079178
2 *44:5 *44:6 1.34521
3 *44:4 *44:5 4.04379
4 *44:3 *44:4 1.35069
5 *44:2 *44:3 2.15932
6 *74:D *44:2 8.76079178
*END

*D_NET *45 0.000552818

*CONN
*I *73:D I *C 333.1 417.335 *L 0.00021 *D DFFNSRX4
*I *77:Y O *C 337.005 420.985 *L 0 *D NAND2X8

*CAP
1 *73:D 2.2669e-05
2 *77:Y 2.2669e-05
3 *45:2 6.49301e-05
4 *45:3 8.88889e-05
5 *45:4 6.49301e-05
6 *45:5 8.88889e-05
7 *45:6 9.992e-05
8 *45:7 9.992e-05

*RES
1 *45:7 *77:Y 8.76079178
2 *45:6 *45:7 6.07825
3 *45:5 *45:6 8.76079178
4 *45:3 *45:5 4.19418
5 *45:4 *45:3 8.76079178
6 *45:2 *45:4 3.68633
7 *73:D *45:2 8.76079178
*END

*D_NET *46 0.0132409

*CONN
*I *74:Q O *C 340.245 374.875 *L 0 *D DFFNSRX4
*I *67:B I *C 247.9 333.545 *L 0.00021 *D AND2XL

*CAP
1 *74:Q 2.2617e-05
2 *67:B 2.2617e-05
3 *46:2 0.000226381
4 *46:3 0.000226381
5 *46:4 2.96409e-05
6 *46:5 3.42767e-05
7 *46:6 2.68313e-05
8 *46:7 3.06945e-05
9 *46:8 2.20551e-05
10 *46:9 0.00460312
11 *46:10 0.00460193
12 *46:11 0.00134311
13 *46:12 0.00134782
14 *46:13 0.000354005
15 *46:14 0.000349369

*RES
1 *46:14 *74:Q 8.76061
2 *46:13 *46:14 24.8867
3 *46:12 *46:13 1.08129
4 *46:11 *46:12 100.887
5 *46:10 *46:11 8.76061
6 *46:9 *46:10 277.897034
7 *46:7 *46:9 1.35268
8 *46:8 *46:7 8.76061
9 *46:4 *67:B 8.76061
10 *46:6 *46:8 1.54774
11 *46:4 *46:5 1.39084
12 *46:3 *46:6 1.11098
13 *46:2 *46:5 1.11098
14 *46:2 *46:3 15.2908
*END

*D_NET *47 0.00895609

*CONN
*I *75:Q O *C 338.245 453.535 *L 0 *D DFFNSRX4
*I *68:B I *C 249.5 454.955 *L 0.00021 *D AND2XL

*CAP
1 *75:Q 2.26597e-05
2 *68:B 2.26597e-05
3 *47:2 9.96773e-05
4 *47:3 9.96773e-05
5 *47:5 1.78859e-05
6 *47:6 0.00417136
7 *47:7 0.00417136
8 *47:7 *13:37 0.00017248
9 *47:6 *13:38 0.00017248
10 *47:7 *13:38 2.11e-06
11 *47:6 *13:39 2.11e-06
12 *47:7 *13:39 8.4e-07
13 *47:6 *13:40 8.4001019e-07

*RES
1 *47:3 *75:Q 8.76114
2 *47:3 *47:2 6.75179
3 *47:7 *47:2 8.76114
4 *47:6 *47:7 312.048798
5 *47:5 *68:B 8.76114
6 *47:5 *47:6 8.76114
7 *47:4 *47:5 1.05229
*END

*D_NET *48 0.0214613

*CONN
*I *76:Q O *C 436.645 331.545 *L 0 *D DFFNSRX4
*I *69:B I *C 596.3 273.695 *L 0.00021 *D AND2XL

*CAP
1 *76:Q 2.26212e-05
2 *69:B 0.000386168
3 *48:2 0.00752528
4 *48:3 0.000179362
5 *48:4 0.000174654
6 *48:5 0.00435154
7 *48:6 0.00241656
8 *48:7 0.00242127
9 *48:8 3.91565e-05
10 *48:9 0.00319946
11 *48:10 3.44485e-05
12 *48:11 0.000399029
13 *48:12 0.000153526
14 *48:13 0.000158234

*RES
1 *48:11 *69:B 23.3849
2 *48:12 *48:11 8.76182
3 *48:12 *48:13 9.40283
4 *48:8 *48:13 1.07369
5 *48:8 *48:10 2.00717
6 *48:9 *48:10 8.76182
7 *48:2 *48:9 192.844
8 *48:5 *48:2 262.558197
9 *48:6 *48:5 8.76182
10 *48:6 *48:7 183.618
11 *48:4 *76:Q 8.76182
12 *48:3 *48:7 1.0777
13 *48:3 *48:4 11.434
*END

*D_NET *49 0.0447522

*CONN
*I *97:PAD B *C 458 80.71 *L 0 *D PADDI
*I *97:Y O *C 455.9125 239.6375 *L 0 *D PADDI

*CAP
1 *97:PAD 0.002583
2 *97:Y 5.1785e-05
3 *49:5 0.000168956
4 *49:6 0.00155264
5 *49:7 3.24412e-05
6 *49:8 0.00144837
7 *49:9 3.72772e-05
8 *49:10 4.00981e-05
9 *49:11 1.82356e-05
10 *49:12 1.79333e-05
11 *49:13 1.62206e-05
12 *49:14 2.72022e-05
13 *49:15 3.72772e-05
14 *49:16 2.84112e-05
15 *49:17 1.82356e-05
16 *49:18 0.00659685
17 *49:19 0.00261625
18 *49:20 0.000103772
19 *49:21 0.00660259
20 *49:21 *50:2 0.0113744
21 *49:18 *50:3 0.0113744
22 *49:15 *50:4 2.92e-06
23 *49:9 *50:5 2.88000537e-06

*RES
1 *97:PAD *49:19 3.82282
2 *49:18 *49:19 0.0801189
3 *49:18 *49:21 29.9841
4 *97:Y *49:5 4.22341
5 *49:20 *49:21 0.596804
6 *49:5 *49:6 8.74604
7 *49:10 *49:20 0.10955
8 *49:6 *49:8 107.15657
9 *49:9 *49:10 0.596804
10 *49:7 *49:8 1.05626
11 *49:9 *49:15 0.793014
12 *49:7 *49:16 1.45849
13 *49:14 *49:15 2.16485
14 *49:4 *49:14 0.273058
15 *49:17 *49:16 8.76076
16 *49:13 *49:14 2.16485
17 *49:3 *49:13 1.04972
18 *49:11 *49:17 0.696544
19 *49:12 *49:13 8.76076
20 *49:12 *49:11 8.76076
21 *49:2 *49:12 1.04972
*END

*D_NET *50 0.0444974

*CONN
*I *98:PAD B *C 520 80.71 *L 0 *D PADDI
*I *98:Y O *C 517.9125 239.6375 *L 0 *D PADDI

*CAP
1 *98:PAD 0.00262754
2 *98:Y 2.58925e-05
3 *50:2 0.00660259
4 *50:3 0.00659685
5 *50:4 2.1661e-05
6 *50:5 2.1661e-05
7 *50:9 0.00266078
8 *50:10 0.000127246
9 *50:11 4.60423e-05
10 *50:12 1.79333e-05
11 *50:13 1.62206e-05
12 *50:14 2.72022e-05
13 *50:15 5.77292e-05
14 *50:16 4.60423e-05
15 *50:17 6.17592e-05
16 *50:18 0.00130188
17 *50:19 4.22139e-05
18 *50:20 0.00130188
19 *50:21 4.22139e-05
20 *50:22 4.22139e-05
21 *50:23 5.52105e-05
22 *50:2 *49:21 0.0113744
23 *50:3 *49:18 0.0113744
24 *50:4 *49:15 2.92e-06
25 *50:5 *49:9 2.88000537e-06

*RES
1 *98:Y *50:23 2.11836
2 *50:21 *50:23 2.19196
3 *50:9 *98:PAD 3.8893
4 *50:21 *50:22 1.05844
5 *50:3 *50:9 0.0794936
6 *50:19 *50:22 2.19196
7 *50:3 *50:2 29.9838
8 *50:19 *50:20 1.05844
9 *50:10 *50:2 0.596202
10 *50:18 *50:20 96.4757385
11 *50:5 *50:10 0.596202
12 *50:17 *50:18 1.05697
13 *50:5 *50:4 0.164876
14 *50:15 *50:17 3.64493
15 *50:14 *50:4 2.16546
16 *50:8 *50:14 0.273811
17 *50:16 *50:15 8.76048
18 *50:13 *50:14 2.16546
19 *50:7 *50:13 1.04961
20 *50:11 *50:16 2.7808
21 *50:12 *50:13 8.76048
22 *50:12 *50:11 8.76048
23 *50:6 *50:12 1.04961
*END

*D_NET *51 0.0252032

*CONN
*I *99:PAD B *C 582 80.71 *L 0 *D PADDI
*I *99:Y O *C 579.9125 239.6375 *L 0 *D PADDI

*CAP
1 *99:PAD 0.00262748
2 *99:Y 5.17226e-05
3 *51:5 0.00828181
4 *51:6 0.00266074
5 *51:7 3.38916e-05
6 *51:8 0.00012722
7 *51:9 0.00828763
8 *51:10 2.74421e-05
9 *51:11 1.7831e-05
10 *51:12 1.6187e-05
11 *51:13 2.71891e-05
12 *51:14 3.38916e-05
13 *51:15 5.77927e-05
14 *51:16 2.74421e-05
15 *51:17 6.1713e-05
16 *51:18 0.00104798
17 *51:19 4.2238e-05
18 *51:20 0.00104798
19 *51:21 3.25005e-05
20 *51:22 4.2238e-05
21 *51:23 4.53995e-05
22 *51:24 0.00028947
23 *51:25 0.000315394

*RES
1 *99:Y *51:25 4.23599
2 *51:24 *51:25 19.7338
3 *51:23 *51:24 2.11092
4 *51:21 *51:23 1.45796
5 *51:6 *99:PAD 3.88947
6 *51:21 *51:22 1.05605
7 *51:5 *51:6 0.0801467
8 *51:19 *51:22 2.18635
9 *51:5 *51:9 30.0196
10 *51:19 *51:20 1.05605
11 *51:8 *51:9 0.596385
12 *51:18 *51:20 77.2425156
13 *51:7 *51:8 0.596385
14 *51:17 *51:18 1.05605
15 *51:7 *51:14 0.331194
16 *51:15 *51:17 3.64314
17 *51:13 *51:14 2.16514
18 *51:4 *51:13 0.273442
19 *51:16 *51:15 8.76074
20 *51:12 *51:13 2.16514
21 *51:3 *51:12 1.05016
22 *51:10 *51:16 1.38842
23 *51:11 *51:12 8.76074
24 *51:11 *51:10 8.76074
25 *51:2 *51:11 1.05016
*END

*D_NET *52 0.0327321

*CONN
*I *106:A I *C 612.3625 395.8625 *L 0 *D PADDO
*I *106:PAD O *C 771.9925 396 *L 0 *D PADDO

*CAP
1 *106:A 1.95361e-05
2 *106:PAD 0.00191525
3 *52:5 0.000444655
4 *52:6 0.000444655
5 *52:7 0.00115239
6 *52:8 0.00115239
7 *52:9 2.84052e-05
8 *52:10 2.74464e-05
9 *52:11 4.57839e-05
10 *52:12 4.57839e-05
11 *52:13 2.74464e-05
12 *52:14 1.78581e-05
13 *52:15 1.63e-05
14 *52:16 2.72067e-05
15 *52:17 3.39185e-05
16 *52:18 4.97391e-05
17 *52:19 4.97391e-05
18 *52:20 3.39185e-05
19 *52:21 0.00779094
20 *52:22 3.97913e-05
21 *52:23 0.00195277
22 *52:24 0.00785458
23 *52:25 4.56641e-05
24 *52:24 *53:2 0.00475794
25 *52:21 *53:3 0.00475794016

*RES
1 *106:PAD *52:23 3.75746
2 *52:22 *52:23 0.0802336
3 *52:22 *52:25 0.0540901
4 *52:24 *52:25 0.596794
5 *52:21 *52:24 59.0807762
6 *52:20 *52:21 0.596794
7 *52:9 *106:A 1.42888
8 *52:19 *52:20 0.325442
9 *52:10 *52:9 8.76079
10 *52:8 *52:19 0.567946
11 *52:10 *52:11 1.36127
12 *52:7 *52:8 17.5901
13 *52:5 *52:11 2.18614
14 *52:7 *52:18 0.57065
15 *52:5 *52:6 30.6393
16 *52:17 *52:18 0.326343
17 *52:6 *52:12 2.18614
18 *52:4 *52:16 0.269549
19 *52:16 *52:17 2.1645
20 *52:12 *52:13 1.36217
21 *52:3 *52:15 1.03132
22 *52:15 *52:16 2.1645
23 *52:14 *52:13 8.76079
24 *52:14 *52:15 8.76079
25 *52:2 *52:14 1.03132
*END

*D_NET *53 0.0336651

*CONN
*I *107:A I *C 612.3625 457.8625 *L 0 *D PADDO
*I *107:PAD O *C 771.9925 458 *L 0 *D PADDO

*CAP
1 *107:A 2.92723e-05
2 *107:PAD 0.00194418
3 *53:2 0.00776664
4 *53:3 0.00776664
5 *53:6 0.000799951
6 *53:7 2.71391e-05
7 *53:8 2.6191e-05
8 *53:9 0.000436951
9 *53:10 0.000252429
10 *53:11 0.000799951
11 *53:12 0.000607371
12 *53:13 0.000607371
13 *53:14 2.74946e-05
14 *53:15 0.000252429
15 *53:16 3.22351e-05
16 *53:17 3.22351e-05
17 *53:18 3.82792e-05
18 *53:19 2.74946e-05
19 *53:20 0.000431618
20 *53:21 5.36856e-05
21 *53:22 3.98198e-05
22 *53:23 0.00198151
23 *53:24 0.000122659
24 *53:25 4.56269e-05
25 *53:2 *52:24 0.00475794
26 *53:3 *52:21 0.00475794016

*RES
1 *53:18 *107:A 2.13326
2 *53:19 *53:18 8.76037
3 *53:23 *107:PAD 3.82019
4 *53:17 *53:19 1.35846
5 *53:22 *53:23 0.0798
6 *53:13 *53:17 1.09029
7 *53:22 *53:25 0.0538186
8 *53:12 *53:13 43.4669
9 *53:24 *53:25 0.596644
10 *53:12 *53:16 1.09029
11 *53:21 *53:24 0.220842
12 *53:14 *53:16 1.35846
13 *53:2 *53:21 0.106709
14 *53:15 *53:14 8.76037
15 *53:3 *53:2 58.8015
16 *53:10 *53:15 18.4895
17 *53:3 *53:20 0.105781
18 *53:11 *53:10 8.76037
19 *53:9 *53:20 1.96716
20 *53:6 *53:11 60.8113136
21 *53:5 *53:8 0.268165
22 *53:8 *53:9 0.596644
23 *53:7 *53:6 2.16481
24 *53:7 *53:8 2.16481
25 *53:4 *53:7 0.268165
*END

